
Gurobi 7.0.2 (win64) logging started 01/10/18 05:08:44


Gurobi 7.0.2 (win64) logging started 01/10/18 05:10:18


Gurobi 7.0.2 (win64) logging started 01/10/18 05:13:47


Gurobi 7.0.2 (win64) logging started 01/10/18 05:22:09


Gurobi 7.0.2 (win64) logging started 01/10/18 05:39:28


Gurobi 7.0.2 (win64) logging started 01/10/18 05:50:16


Gurobi 7.0.2 (win64) logging started 01/10/18 05:54:17


Gurobi 7.0.2 (win64) logging started 01/10/18 05:57:12


Gurobi 7.0.2 (win64) logging started 01/10/18 06:07:23


Gurobi 7.0.2 (win64) logging started 01/10/18 06:08:07


Gurobi 7.0.2 (win64) logging started 01/10/18 06:09:28


Gurobi 7.0.2 (win64) logging started 01/10/18 06:14:46


Gurobi 7.0.2 (win64) logging started 01/10/18 06:17:51


Gurobi 7.0.2 (win64) logging started 01/15/18 20:18:56

